qbf_easy_train/easy_5603_UNSAT.qdimacs
p cnf 25 62
a 24 9 2 0
e 1 3 4 5 6 7 8 10 11 12 13 14 15 16 17 18 19 20 21 22 23 25 0
-3 1 0
-3 2 0
-1 -2 3 0
6 4 0
6 5 0
-4 -5 -6 0
7 -3 0
7 -6 0
3 6 -7 0
10 8 0
10 9 0
-8 -9 -10 0
-11 7 0
-11 10 0
-7 -10 11 0
14 -13 0
14 -5 0
13 5 -14 0
-15 14 0
-15 -1 0
-14 1 15 0
12 15 -16 0
-12 -15 -16 0
12 -15 16 0
-12 15 16 0
-17 8 0
-17 -6 0
-8 6 17 0
-16 -17 -18 0
16 17 -18 0
-16 17 18 0
16 -17 18 0
-19 -11 0
-19 18 0
11 -18 19 0
5 -1 -20 0
-5 1 -20 0
5 1 20 0
-5 -1 20 0
21 -5 0
21 13 0
5 -13 -21 0
20 21 -22 0
-20 -21 -22 0
20 -21 22 0
-20 21 22 0
-23 13 0
-23 3 0
-13 -3 23 0
24 22 0
24 23 0
-22 -23 -24 0
25 19 0
25 24 0
-19 -24 -25 0
21 16 -19 6 -11 -18 12 0
-3 -6 16 -23 24 15 -17 0
-3 11 -8 23 20 16 0
9 19 1 20 3 0
23 25 18 0
22 2 -24 19 -12 8 0
25 0
