sat_easy_train/easy_5603_UNSAT.dimacs
p cnf 140 496
-1 2 -3 0
1 -2 -3 0
-1 -2 3 0
1 2 3 0
8 6 0
8 7 0
-6 -7 -8 0
5 8 -9 0
-5 -8 -9 0
5 -8 9 0
-5 8 9 0
4 9 -10 0
-4 -9 -10 0
4 -9 10 0
-4 9 10 0
-12 -11 0
-12 -11 0
11 12 0
12 -13 -14 0
-12 13 -14 0
12 13 14 0
-12 -13 14 0
-15 10 0
-15 -14 0
-10 14 15 0
3 -15 -16 0
-3 15 -16 0
3 15 16 0
-3 -15 16 0
18 -17 0
18 -11 0
17 11 -18 0
18 -17 -19 0
-18 17 -19 0
18 17 19 0
-18 -17 19 0
20 1 0
20 19 0
-1 -19 -20 0
-21 -16 0
-21 20 0
16 -20 21 0
-1 -5 -22 0
1 5 -22 0
-1 5 22 0
1 -5 22 0
-23 24 -25 0
23 -24 -25 0
-23 -24 25 0
23 24 25 0
26 4 0
26 -25 0
-4 25 -26 0
10 27 -28 0
-10 -27 -28 0
10 -27 28 0
-10 27 28 0
29 -26 0
29 -28 0
26 28 -29 0
30 26 0
30 -29 0
-26 29 -30 0
-22 -30 -31 0
22 30 -31 0
-22 30 31 0
22 -30 31 0
-4 24 -32 0
4 -24 -32 0
-4 -24 32 0
4 24 32 0
-2 32 -33 0
2 -32 -33 0
-2 -32 33 0
2 32 33 0
34 15 0
34 33 0
-15 -33 -34 0
-35 34 0
-35 -32 0
-34 32 35 0
36 -28 0
36 -35 0
28 35 -36 0
-37 23 0
-37 -11 0
-23 11 37 0
37 3 -38 0
-37 -3 -38 0
37 -3 38 0
-37 3 38 0
39 28 0
39 -19 0
-28 19 -39 0
40 -38 0
40 39 0
38 -39 -40 0
-36 40 -41 0
36 -40 -41 0
-36 -40 41 0
36 40 41 0
31 41 -42 0
-31 -41 -42 0
31 -41 42 0
-31 41 42 0
-43 21 0
-43 42 0
-21 -42 43 0
-4 17 -44 0
4 -17 -44 0
-4 -17 44 0
4 17 44 0
7 -35 -45 0
-7 35 -45 0
7 35 45 0
-7 -35 45 0
-7 17 -46 0
7 -17 -46 0
-7 -17 46 0
7 17 46 0
-47 -5 0
-47 46 0
5 -46 47 0
45 47 -48 0
-45 -47 -48 0
45 -47 48 0
-45 47 48 0
-49 -44 0
-49 48 0
44 -48 49 0
-2 -7 -50 0
2 7 -50 0
-2 7 50 0
2 -7 50 0
-51 -5 0
-51 -2 0
5 2 51 0
-3 -51 -52 0
3 51 -52 0
-3 51 52 0
3 -51 52 0
7 -23 -53 0
-7 23 -53 0
7 23 53 0
-7 -23 53 0
-53 2 -54 0
53 -2 -54 0
-53 -2 54 0
53 2 54 0
-55 52 0
-55 -54 0
-52 54 55 0
-57 -56 0
-57 11 0
56 -11 57 0
55 -57 -58 0
-55 57 -58 0
55 57 58 0
-55 -57 58 0
-16 37 -59 0
16 -37 -59 0
-16 -37 59 0
16 37 59 0
-58 59 -60 0
58 -59 -60 0
-58 -59 60 0
58 59 60 0
-13 37 -61 0
13 -37 -61 0
-13 -37 61 0
13 37 61 0
-51 -12 -62 0
51 12 -62 0
-51 12 62 0
51 -12 62 0
63 -62 0
63 -14 0
62 14 -63 0
64 61 0
64 63 0
-61 -63 -64 0
60 64 -65 0
-60 -64 -65 0
60 -64 65 0
-60 64 65 0
-50 -65 -66 0
50 65 -66 0
-50 65 66 0
50 -65 66 0
-49 -66 -67 0
49 66 -67 0
-49 66 67 0
49 -66 67 0
69 1 0
69 68 0
-1 -68 -69 0
70 7 0
70 -69 0
-7 69 -70 0
-71 24 0
-71 25 0
-24 -25 71 0
-72 9 0
-72 -9 0
-73 -17 0
-73 -4 0
17 4 73 0
33 73 -74 0
-33 -73 -74 0
33 -73 74 0
-33 73 74 0
-6 -74 -75 0
6 74 -75 0
-6 74 75 0
6 -74 75 0
76 -72 0
76 -75 0
72 75 -76 0
-77 -32 0
-77 -14 0
32 14 77 0
-78 -6 0
-78 -6 0
6 78 0
77 78 -79 0
-77 -78 -79 0
77 -78 79 0
-77 78 79 0
-80 76 0
-80 79 0
-76 -79 80 0
81 71 0
81 80 0
-71 -80 -81 0
-70 -81 -82 0
70 81 -82 0
-70 81 82 0
70 -81 82 0
-67 82 -83 0
67 -82 -83 0
-67 -82 83 0
67 82 83 0
43 -83 -84 0
-43 83 -84 0
43 83 84 0
-43 -83 84 0
85 -51 0
85 -1 0
51 1 -85 0
-2 -77 -86 0
2 77 -86 0
-2 77 86 0
2 -77 86 0
87 9 0
87 -86 0
-9 86 -87 0
-88 -16 0
-88 87 0
16 -87 88 0
-89 -85 0
-89 -88 0
85 88 89 0
-90 -54 0
-90 -10 0
54 10 90 0
89 90 -91 0
-89 -90 -91 0
89 -90 91 0
-89 90 91 0
56 77 -92 0
-56 -77 -92 0
56 -77 92 0
-56 77 92 0
-93 68 0
-93 92 0
-68 -92 93 0
-94 91 0
-94 -93 0
-91 93 94 0
-68 -17 -95 0
68 17 -95 0
-68 17 95 0
68 -17 95 0
97 95 0
97 -96 0
-95 96 -97 0
68 97 -98 0
-68 -97 -98 0
68 -97 98 0
-68 97 98 0
-99 -94 0
-99 98 0
94 -98 99 0
84 99 -100 0
-84 -99 -100 0
84 -99 100 0
-84 99 100 0
11 78 -101 0
-11 -78 -101 0
11 -78 101 0
-11 78 101 0
-6 -96 -102 0
6 96 -102 0
-6 96 102 0
6 -96 102 0
103 33 0
103 73 0
-33 -73 -103 0
-104 -102 0
-104 -103 0
102 103 104 0
-25 56 -105 0
25 -56 -105 0
-25 -56 105 0
25 56 105 0
-106 -104 0
-106 -105 0
104 105 106 0
-107 73 0
-107 -35 0
-73 35 107 0
32 -74 -108 0
-32 74 -108 0
32 74 108 0
-32 -74 108 0
1 -108 -109 0
-1 108 -109 0
1 108 109 0
-1 -108 109 0
35 13 -110 0
-35 -13 -110 0
35 -13 110 0
-35 13 110 0
-111 -109 0
-111 110 0
109 -110 111 0
-112 107 0
-112 -111 0
-107 111 112 0
-113 106 0
-113 112 0
-106 -112 113 0
-101 -113 -114 0
101 113 -114 0
-101 113 114 0
101 -113 114 0
-115 17 0
-115 -68 0
-17 68 115 0
116 23 0
116 14 0
-23 -14 -116 0
-18 116 -117 0
18 -116 -117 0
-18 -116 117 0
18 116 117 0
118 -115 0
118 117 0
115 -117 -118 0
-119 114 0
-119 -118 0
-114 118 119 0
100 -119 -120 0
-100 119 -120 0
100 119 120 0
-100 -119 120 0
-121 -2 0
-121 -37 0
2 37 121 0
-2 121 -122 0
2 -121 -122 0
-2 -121 122 0
2 121 122 0
-123 122 0
-123 26 0
-122 -26 123 0
124 -13 0
124 108 0
13 -108 -124 0
125 -96 0
125 33 0
96 -33 -125 0
126 125 0
126 -23 0
-125 23 -126 0
-127 -23 0
-127 -15 0
23 15 127 0
23 -127 -128 0
-23 127 -128 0
23 127 128 0
-23 -127 128 0
126 128 -129 0
-126 -128 -129 0
126 -128 129 0
-126 128 129 0
130 124 0
130 129 0
-124 -129 -130 0
-123 -130 -131 0
123 130 -131 0
-123 130 131 0
123 -130 131 0
-133 132 0
-133 -2 0
-132 2 133 0
134 -131 0
134 133 0
131 -133 -134 0
135 125 0
135 -14 0
-125 14 -135 0
136 16 0
136 135 0
-16 -135 -136 0
-4 1 -137 0
4 -1 -137 0
-4 -1 137 0
4 1 137 0
-138 -136 0
-138 -137 0
136 137 138 0
134 -138 -139 0
-134 138 -139 0
134 138 139 0
-134 -138 139 0
120 139 -140 0
-120 -139 -140 0
120 -139 140 0
-120 139 140 0
-90 -131 -66 -1 128 112 0
86 110 102 57 0
23 120 0
-137 51 37 35 0
-139 128 -61 -76 -14 0
-95 -48 55 30 -126 0
22 -38 125 -113 51 0
44 -102 0
113 42 -133 0
-101 -90 0
-47 42 100 0
11 118 76 -75 -27 -103 0
99 -65 -108 5 -27 68 0
-57 2 0
31 -122 0
-98 -81 86 -105 0
95 40 -97 -105 0
107 108 113 -120 136 -2 0
62 128 0
65 -79 -72 -130 38 0
-42 -103 0
-72 93 -120 -18 -134 0
-16 36 -81 90 -9 69 0
99 -105 -24 -114 -73 0
25 65 0
36 109 0
-126 -112 63 114 -140 0
-104 97 129 0
-105 65 -10 0
-98 -32 -16 0
119 -97 -20 0
87 137 -138 68 24 74 0
2 -93 132 -95 -138 -50 0
-32 -24 66 89 27 -38 0
116 40 0
33 88 -59 0
108 -126 19 105 136 0
-79 32 -6 133 0
-97 11 -91 77 -60 109 0
-1 -27 0
126 -11 0
-82 70 -90 20 0
43 -113 0
-35 61 126 -15 64 101 0
97 -63 -21 0
65 103 21 0
36 -59 86 19 0
76 -55 98 0
-98 23 110 70 0
1 24 71 30 0
131 -66 29 25 88 -118 0
-115 -105 -76 31 -3 0
56 -32 0
-25 -19 -73 0
-124 56 44 31 -66 0
-98 -134 117 116 -30 -104 0
-109 90 -69 -35 0
63 110 38 -55 0
-70 118 0
100 -92 0
57 107 0
47 53 -61 50 62 0
94 22 -43 29 0
93 138 0
105 -79 75 0
140 0
